;; produced by cvc4_16.drv ;;
(set-logic AUFBVFPDTNIRA)
(set-info :smt-lib-version 2.6)
;;; generated by SMT-LIB2 driver
;;; SMT-LIB2 driver: bit-vectors, common part
;;; SMT-LIB2: integer arithmetic
(declare-sort string 0)

(declare-datatypes ((tuple0 0))
(((Tuple0))))
(declare-sort us_private 0)

(declare-fun private__bool_eq (us_private us_private) Bool)

(declare-const us_null_ext__ us_private)

(declare-sort us_type_of_heap 0)

(declare-datatypes ((us_type_of_heap__ref 0))
(((us_type_of_heap__refqtmk (us_type_of_heap__content us_type_of_heap)))))
(declare-sort us_image 0)

(declare-datatypes ((int__ref 0))
(((int__refqtmk (int__content Int)))))
(declare-datatypes ((bool__ref 0))
(((bool__refqtmk (bool__content Bool)))))
(declare-datatypes ((us_fixed__ref 0))
(((us_fixed__refqtmk (us_fixed__content Int)))))
(declare-datatypes ((real__ref 0))
(((real__refqtmk (real__content Real)))))
(declare-datatypes ((us_private__ref 0))
(((us_private__refqtmk (us_private__content us_private)))))
(define-fun int__ref___projection ((a int__ref)) Int (int__content a))

(define-fun us_fixed__ref___projection ((a us_fixed__ref)) Int (us_fixed__content
                                                               a))

(define-fun bool__ref___projection ((a bool__ref)) Bool (bool__content a))

(define-fun real__ref___projection ((a real__ref)) Real (real__content a))

(define-fun us_private__ref___projection ((a us_private__ref)) us_private 
  (us_private__content a))

(define-fun in_range ((x Int)) Bool (or (= x 0) (= x 1)))

(declare-fun attr__ATTRIBUTE_IMAGE (Bool) us_image)

(declare-fun attr__ATTRIBUTE_VALUE__pre_check (us_image) Bool)

(declare-fun attr__ATTRIBUTE_VALUE (us_image) Bool)

(declare-sort integer 0)

(declare-fun integerqtint (integer) Int)

;; integer'axiom
  (assert
  (forall ((i integer))
  (and (<= (- 2147483648) (integerqtint i)) (<= (integerqtint i) 2147483647))))

(define-fun in_range1 ((x Int)) Bool (and (<= (- 2147483648) x)
                                     (<= x 2147483647)))

(declare-fun attr__ATTRIBUTE_IMAGE1 (Int) us_image)

(declare-fun attr__ATTRIBUTE_VALUE__pre_check1 (us_image) Bool)

(declare-fun attr__ATTRIBUTE_VALUE1 (us_image) Int)

(declare-fun user_eq (integer integer) Bool)

(declare-const dummy integer)

(declare-datatypes ((integer__ref 0))
(((integer__refqtmk (integer__content integer)))))
(define-fun integer__ref_integer__content__projection ((a integer__ref)) integer 
  (integer__content a))

(define-fun dynamic_invariant ((temp___expr_18 Int) (temp___is_init_14 Bool)
  (temp___skip_constant_15 Bool) (temp___do_toplevel_16 Bool)
  (temp___do_typ_inv_17 Bool)) Bool (=>
                                    (or (= temp___is_init_14 true)
                                    (<= (- 2147483648) 2147483647))
                                    (in_range1 temp___expr_18)))

(define-fun to_rep ((x integer)) Int (integerqtint x))

(declare-fun of_rep (Int) integer)

;; inversion_axiom
  (assert
  (forall ((x integer)) (! (= (of_rep (to_rep x)) x) :pattern ((to_rep x)) )))

;; range_axiom
  (assert
  (forall ((x integer)) (! (in_range1 (to_rep x)) :pattern ((to_rep x)) )))

;; coerce_axiom
  (assert
  (forall ((x Int))
  (! (=> (in_range1 x) (= (to_rep (of_rep x)) x)) :pattern ((to_rep
                                                            (of_rep x))) )))

(declare-const attr__ATTRIBUTE_ADDRESS Int)

(declare-datatypes ((map__ref 0))
(((map__refqtmk (map__content (Array Int integer))))))
(declare-fun slide ((Array Int integer) Int Int) (Array Int integer))

;; slide_eq
  (assert
  (forall ((a (Array Int integer)))
  (forall ((first Int))
  (! (= (slide a first first) a) :pattern ((slide a first first)) ))))

;; slide_def
  (assert
  (forall ((a (Array Int integer)))
  (forall ((old_first Int))
  (forall ((new_first Int))
  (forall ((i Int))
  (! (= (select (slide a old_first new_first) i) (select a (- i (- new_first old_first)))) :pattern ((select 
  (slide a old_first new_first) i)) ))))))

(define-fun bool_eq ((a (Array Int integer)) (a__first Int) (a__last Int)
  (b (Array Int integer)) (b__first Int)
  (b__last Int)) Bool (ite (and
                           (ite (<= a__first a__last)
                           (and (<= b__first b__last)
                           (= (- a__last a__first) (- b__last b__first)))
                           (< b__last b__first))
                           (forall ((temp___idx_154 Int))
                           (=>
                           (and (<= a__first temp___idx_154)
                           (<= temp___idx_154 a__last))
                           (= (to_rep (select a temp___idx_154)) (to_rep
                                                                 (select b (+ (- b__first a__first) temp___idx_154)))))))
                      true false))

;; bool_eq_rev
  (assert
  (forall ((a (Array Int integer)) (b (Array Int integer)))
  (forall ((a__first Int) (a__last Int) (b__first Int) (b__last Int))
  (=> (= (bool_eq b b__first b__last a a__first a__last) true)
  (and
  (ite (<= a__first a__last)
  (and (<= b__first b__last) (= (- a__last a__first) (- b__last b__first)))
  (< b__last b__first))
  (forall ((temp___idx_154 Int))
  (=> (and (<= a__first temp___idx_154) (<= temp___idx_154 a__last))
  (= (to_rep (select a temp___idx_154)) (to_rep
                                        (select b (+ (- b__first a__first) temp___idx_154)))))))))))

(declare-const attr__ATTRIBUTE_ADDRESS1 Int)

(declare-const b Int)

(declare-const attr__ATTRIBUTE_ADDRESS2 Int)

(declare-sort ta2D1 0)

(declare-fun ta2D1qtint (ta2D1) Int)

;; ta2D1'axiom
  (assert
  (forall ((i ta2D1)) (and (<= 1 (ta2D1qtint i)) (<= (ta2D1qtint i) 2))))

(define-fun in_range2 ((x Int)) Bool (and (<= 1 x) (<= x 2)))

(declare-fun attr__ATTRIBUTE_IMAGE2 (Int) us_image)

(declare-fun attr__ATTRIBUTE_VALUE__pre_check2 (us_image) Bool)

(declare-fun attr__ATTRIBUTE_VALUE2 (us_image) Int)

(declare-fun user_eq1 (ta2D1 ta2D1) Bool)

(declare-const dummy1 ta2D1)

(declare-datatypes ((ta2D1__ref 0))
(((ta2D1__refqtmk (ta2D1__content ta2D1)))))
(define-fun ta2D1__ref_ta2D1__content__projection ((a ta2D1__ref)) ta2D1 
  (ta2D1__content a))

(declare-fun temp_____aggregate_def_367 (Int Int) (Array Int integer))

(declare-fun temp_____aggregate_def_372 (Int) (Array Int integer))

(declare-fun temp_____aggregate_def_376 (Int Int) (Array Int integer))

(declare-fun temp_____aggregate_def_381 (Int Int) (Array Int integer))

(declare-fun temp_____aggregate_def_386 (Int Int) (Array Int integer))

(declare-const rliteral integer)

;; rliteral_axiom
  (assert (= (integerqtint rliteral) 2))

;; def_axiom
  (assert
  (forall ((temp___369 Int) (temp___370 Int))
  (let ((temp___368 (temp_____aggregate_def_367 temp___369 temp___370)))
  (=>
  (and (dynamic_invariant temp___369 true true true true) (dynamic_invariant
  temp___370 true true true true))
  (and (= (to_rep (select temp___368 1)) temp___369)
  (= (select temp___368 2) rliteral))))))

;; def_axiom
  (assert
  (forall ((temp___374 Int))
  (=> (dynamic_invariant temp___374 true true true true)
  (forall ((temp___375 Int))
  (= (to_rep (select (temp_____aggregate_def_372 temp___374) temp___375)) temp___374)))))

;; def_axiom
  (assert
  (forall ((temp___378 Int) (temp___379 Int))
  (let ((temp___377 (temp_____aggregate_def_376 temp___378 temp___379)))
  (=>
  (and (dynamic_invariant temp___378 true true true true) (dynamic_invariant
  temp___379 true true true true))
  (forall ((temp___380 Int))
  (ite (= temp___380 1)
  (= (to_rep (select temp___377 temp___380)) temp___378)
  (= (to_rep (select temp___377 temp___380)) temp___379)))))))

;; def_axiom
  (assert
  (forall ((temp___383 Int) (temp___384 Int))
  (let ((temp___382 (temp_____aggregate_def_381 temp___383 temp___384)))
  (=>
  (and (dynamic_invariant temp___383 true true true true) (dynamic_invariant
  temp___384 true true true true))
  (forall ((temp___385 Int))
  (ite (= temp___385 1) (= (select temp___382 temp___385) rliteral)
  (= (to_rep (select temp___382 temp___385)) temp___384)))))))

;; def_axiom
  (assert
  (forall ((temp___388 Int) (temp___389 Int))
  (let ((temp___387 (temp_____aggregate_def_386 temp___388 temp___389)))
  (=>
  (and (dynamic_invariant temp___388 true true true true) (dynamic_invariant
  temp___389 true true true true))
  (forall ((temp___390 Int))
  (ite (= temp___390 2) (= (select temp___387 temp___390) rliteral)
  (= (to_rep (select temp___387 temp___390)) temp___389)))))))

(assert
;; defqtvc
 ;; File "arr_aggregate.ads", line 14, characters 0-0
  (not
  (forall ((one Int) (a (Array Int integer)))
  (=> (dynamic_invariant one true false true true)
  (=> (dynamic_invariant b true false true true)
  (=> (= one 1)
  (=>
  (exists ((spark__branch Bool))
  (and (= spark__branch (ite (= b 1) true false))
  (ite (= spark__branch true) (= a (temp_____aggregate_def_367 one 2))
  (exists ((spark__branch1 Bool))
  (and (= spark__branch1 (ite (= b 2) true false))
  (ite (= spark__branch1 true) (= a (temp_____aggregate_def_372 one))
  (exists ((spark__branch2 Bool))
  (and (= spark__branch2 (ite (= b 3) true false))
  (ite (= spark__branch2 true) (= a (temp_____aggregate_def_376 one one))
  (exists ((spark__branch3 Bool))
  (and (= spark__branch3 (ite (= b 4) true false))
  (ite (= spark__branch3 true) (= a (temp_____aggregate_def_381 2 one))
  (= a (temp_____aggregate_def_386 2 one))))))))))))))
  (=> (not (= b 1))
  (=> (not (= b 2)) (=> (not (= b 3)) (=> (= b 4) (<= 1 one))))))))))))
(check-sat)
